begin projections
f=0.25000,0.75000,0.5000 :dxy;dxz;dyz: x=1,-1,0
f=0.75000,0.25000,0.5000 :dxy;dxz;dyz: x=1,-1,0
end projections

write_hr = .true.
wannier_plot = .true.
wannier_plot_supercell = 7 7 1

num_bands         =   25
num_wann          =   6
num_iter          =   0
num_print_cycles  =   50
exclude_bands = 1-40,66-72

fermi_energy  = -0.0098
dis_win_min = -2.27
dis_win_max =  0.55
dis_froz_min = -1.72
dis_froz_max = 0.54
dis_num_iter  = 10000


begin unit_cell_cart
5.4607    0.0   0.0
0.0    5.4607   0.0
0.0    0.0   34.1575
end unit_cell_cart
    
begin atoms_frac
Ru    0.25    0.75    0.5
O    0.9568899591627447    0.9476999285805849    0.5
O    0.25    0.75    0.43914001317426626
O    0.25    0.75    0.5608599868257338
Ru    0.75    0.25    0.5
O    0.4568899591627447    0.05230007141941509    0.5
O    0.75    0.25    0.43914001317426626
O    0.75    0.25    0.5608599868257338
Sr    0.25    0.25    0.5547899875576374
Sr    0.25    0.25    0.44521001244236263
O    0.5523000714194151    0.5431100408372553    0.5
Sr    0.75    0.75    0.5547899875576374
Sr    0.75    0.75    0.44521001244236263
O    0.05230007141941509    0.4568899591627447    0.5
end atoms_frac

mp_grid = 7 7 1
    
begin kpoints
0.0 0.0 0.0 0.02040816326530612
0.0 0.14285714285714285 0.0 0.02040816326530612
0.0 0.2857142857142857 0.0 0.02040816326530612
0.0 0.42857142857142855 0.0 0.02040816326530612
0.0 0.5714285714285714 0.0 0.02040816326530612
0.0 0.7142857142857143 0.0 0.02040816326530612
0.0 0.8571428571428571 0.0 0.02040816326530612
0.14285714285714285 0.0 0.0 0.02040816326530612
0.14285714285714285 0.14285714285714285 0.0 0.02040816326530612
0.14285714285714285 0.2857142857142857 0.0 0.02040816326530612
0.14285714285714285 0.42857142857142855 0.0 0.02040816326530612
0.14285714285714285 0.5714285714285714 0.0 0.02040816326530612
0.14285714285714285 0.7142857142857143 0.0 0.02040816326530612
0.14285714285714285 0.8571428571428571 0.0 0.02040816326530612
0.2857142857142857 0.0 0.0 0.02040816326530612
0.2857142857142857 0.14285714285714285 0.0 0.02040816326530612
0.2857142857142857 0.2857142857142857 0.0 0.02040816326530612
0.2857142857142857 0.42857142857142855 0.0 0.02040816326530612
0.2857142857142857 0.5714285714285714 0.0 0.02040816326530612
0.2857142857142857 0.7142857142857143 0.0 0.02040816326530612
0.2857142857142857 0.8571428571428571 0.0 0.02040816326530612
0.42857142857142855 0.0 0.0 0.02040816326530612
0.42857142857142855 0.14285714285714285 0.0 0.02040816326530612
0.42857142857142855 0.2857142857142857 0.0 0.02040816326530612
0.42857142857142855 0.42857142857142855 0.0 0.02040816326530612
0.42857142857142855 0.5714285714285714 0.0 0.02040816326530612
0.42857142857142855 0.7142857142857143 0.0 0.02040816326530612
0.42857142857142855 0.8571428571428571 0.0 0.02040816326530612
0.5714285714285714 0.0 0.0 0.02040816326530612
0.5714285714285714 0.14285714285714285 0.0 0.02040816326530612
0.5714285714285714 0.2857142857142857 0.0 0.02040816326530612
0.5714285714285714 0.42857142857142855 0.0 0.02040816326530612
0.5714285714285714 0.5714285714285714 0.0 0.02040816326530612
0.5714285714285714 0.7142857142857143 0.0 0.02040816326530612
0.5714285714285714 0.8571428571428571 0.0 0.02040816326530612
0.7142857142857143 0.0 0.0 0.02040816326530612
0.7142857142857143 0.14285714285714285 0.0 0.02040816326530612
0.7142857142857143 0.2857142857142857 0.0 0.02040816326530612
0.7142857142857143 0.42857142857142855 0.0 0.02040816326530612
0.7142857142857143 0.5714285714285714 0.0 0.02040816326530612
0.7142857142857143 0.7142857142857143 0.0 0.02040816326530612
0.7142857142857143 0.8571428571428571 0.0 0.02040816326530612
0.8571428571428571 0.0 0.0 0.02040816326530612
0.8571428571428571 0.14285714285714285 0.0 0.02040816326530612
0.8571428571428571 0.2857142857142857 0.0 0.02040816326530612
0.8571428571428571 0.42857142857142855 0.0 0.02040816326530612
0.8571428571428571 0.5714285714285714 0.0 0.02040816326530612
0.8571428571428571 0.7142857142857143 0.0 0.02040816326530612
0.8571428571428571 0.8571428571428571 0.0 0.02040816326530612
end kpoints
